NAME 
OBJSENSE MAX
ROWS
 N  OBJ
 L  packing[0]
 L  packing[1]
 L  packing[2]
 L  packing[3]
 L  packing[4]
 L  packing[5]
 L  packing[6]
 L  packing[7]
 L  packing[8]
 L  packing[9]
 L  packing[10]
 L  packing[11]
 L  packing[12]
 L  packing[13]
 L  packing[14]
 L  packing[15]
 L  packing[16]
 L  packing[17]
 L  packing[18]
 L  packing[19]
 L  packing[20]
 L  packing[21]
 L  packing[22]
 L  packing[23]
 L  packing[24]
 L  packing[25]
 L  packing[26]
 L  packing[27]
 L  packing[28]
 L  packing[29]
 L  packing[30]
 L  packing[31]
 L  packing[32]
 L  packing[33]
 L  packing[34]
 L  packing[35]
 L  packing[36]
 L  packing[37]
 L  packing[38]
 L  packing[39]
 L  packing[40]
 L  packing[41]
 L  packing[42]
 L  packing[43]
 L  packing[44]
 L  packing[45]
 L  packing[46]
 L  packing[47]
 L  packing[48]
 L  packing[49]
 L  R50     
COLUMNS
    MARKER    'MARKER'                 'INTORG'
    x[1]      OBJ       70
    x[1]      packing[0]  56
    x[1]      packing[2]  189
    x[1]      packing[3]  106
    x[1]      packing[4]  31
    x[1]      packing[5]  48
    x[1]      packing[6]  197
    x[1]      packing[7]  78
    x[1]      packing[9]  51
    x[1]      packing[11]  38
    x[1]      packing[12]  66
    x[1]      packing[15]  106
    x[1]      packing[16]  88
    x[1]      packing[17]  194
    x[1]      packing[18]  14
    x[1]      packing[19]  74
    x[1]      packing[20]  43
    x[1]      packing[21]  155
    x[1]      packing[22]  193
    x[1]      packing[24]  114
    x[1]      packing[25]  106
    x[1]      packing[26]  103
    x[1]      packing[27]  35
    x[1]      packing[28]  39
    x[1]      packing[29]  138
    x[1]      packing[30]  1
    x[1]      packing[32]  104
    x[1]      packing[33]  96
    x[1]      packing[35]  81
    x[1]      packing[37]  152
    x[1]      packing[38]  191
    x[1]      packing[40]  42
    x[1]      packing[41]  85
    x[1]      packing[44]  29
    x[1]      packing[45]  53
    x[1]      packing[46]  190
    x[1]      packing[47]  197
    x[1]      packing[48]  110
    x[1]      packing[49]  78
    x[2]      OBJ       153
    x[2]      packing[0]  92
    x[2]      packing[1]  185
    x[2]      packing[2]  69
    x[2]      packing[4]  126
    x[2]      packing[5]  8
    x[2]      packing[6]  19
    x[2]      packing[7]  96
    x[2]      packing[8]  44
    x[2]      packing[10]  4
    x[2]      packing[12]  19
    x[2]      packing[13]  7
    x[2]      packing[14]  177
    x[2]      packing[15]  96
    x[2]      packing[16]  119
    x[2]      packing[17]  4
    x[2]      packing[18]  169
    x[2]      packing[19]  81
    x[2]      packing[21]  190
    x[2]      packing[22]  60
    x[2]      packing[23]  71
    x[2]      packing[24]  105
    x[2]      packing[25]  196
    x[2]      packing[26]  81
    x[2]      packing[28]  106
    x[2]      packing[29]  66
    x[2]      packing[30]  100
    x[2]      packing[31]  160
    x[2]      packing[32]  12
    x[2]      packing[33]  150
    x[2]      packing[34]  170
    x[2]      packing[36]  143
    x[2]      packing[37]  163
    x[2]      packing[38]  98
    x[2]      packing[40]  134
    x[2]      packing[41]  3
    x[2]      packing[42]  19
    x[2]      packing[44]  24
    x[2]      packing[45]  50
    x[2]      packing[46]  144
    x[2]      packing[48]  18
    x[2]      packing[49]  165
    x[3]      OBJ       176
    x[3]      packing[0]  10
    x[3]      packing[1]  76
    x[3]      packing[2]  176
    x[3]      packing[4]  106
    x[3]      packing[5]  62
    x[3]      packing[6]  134
    x[3]      packing[8]  5
    x[3]      packing[9]  136
    x[3]      packing[10]  147
    x[3]      packing[12]  80
    x[3]      packing[13]  48
    x[3]      packing[14]  11
    x[3]      packing[15]  46
    x[3]      packing[16]  138
    x[3]      packing[17]  147
    x[3]      packing[18]  143
    x[3]      packing[19]  41
    x[3]      packing[21]  94
    x[3]      packing[23]  9
    x[3]      packing[24]  181
    x[3]      packing[26]  42
    x[3]      packing[27]  106
    x[3]      packing[28]  11
    x[3]      packing[32]  31
    x[3]      packing[33]  27
    x[3]      packing[34]  171
    x[3]      packing[35]  170
    x[3]      packing[36]  81
    x[3]      packing[37]  35
    x[3]      packing[40]  36
    x[3]      packing[42]  39
    x[3]      packing[43]  141
    x[3]      packing[44]  48
    x[3]      packing[45]  133
    x[3]      packing[48]  46
    x[3]      packing[49]  143
    x[4]      OBJ       59
    x[4]      packing[2]  134
    x[4]      packing[4]  112
    x[4]      packing[5]  20
    x[4]      packing[7]  13
    x[4]      packing[8]  1
    x[4]      packing[9]  43
    x[4]      packing[10]  75
    x[4]      packing[12]  115
    x[4]      packing[13]  80
    x[4]      packing[14]  24
    x[4]      packing[16]  135
    x[4]      packing[18]  92
    x[4]      packing[20]  172
    x[4]      packing[21]  37
    x[4]      packing[22]  70
    x[4]      packing[24]  145
    x[4]      packing[25]  189
    x[4]      packing[26]  102
    x[4]      packing[27]  41
    x[4]      packing[31]  126
    x[4]      packing[33]  136
    x[4]      packing[34]  67
    x[4]      packing[37]  59
    x[4]      packing[38]  4
    x[4]      packing[39]  136
    x[4]      packing[40]  122
    x[4]      packing[41]  182
    x[4]      packing[42]  11
    x[4]      packing[45]  70
    x[4]      packing[46]  151
    x[4]      packing[47]  144
    x[4]      packing[48]  49
    x[4]      packing[49]  137
    x[5]      OBJ       73
    x[5]      packing[1]  13
    x[5]      packing[2]  188
    x[5]      packing[3]  59
    x[5]      packing[5]  57
    x[5]      packing[7]  24
    x[5]      packing[9]  56
    x[5]      packing[10]  28
    x[5]      packing[11]  187
    x[5]      packing[12]  84
    x[5]      packing[14]  2
    x[5]      packing[17]  110
    x[5]      packing[19]  67
    x[5]      packing[20]  47
    x[5]      packing[21]  4
    x[5]      packing[23]  149
    x[5]      packing[27]  57
    x[5]      packing[28]  32
    x[5]      packing[29]  97
    x[5]      packing[30]  68
    x[5]      packing[31]  77
    x[5]      packing[32]  60
    x[5]      packing[33]  155
    x[5]      packing[34]  28
    x[5]      packing[35]  119
    x[5]      packing[36]  158
    x[5]      packing[37]  88
    x[5]      packing[38]  127
    x[5]      packing[39]  24
    x[5]      packing[40]  86
    x[5]      packing[42]  120
    x[5]      packing[43]  63
    x[5]      packing[44]  38
    x[5]      packing[45]  130
    x[5]      packing[46]  166
    x[5]      packing[47]  176
    x[5]      packing[48]  28
    x[5]      packing[49]  52
    x[6]      OBJ       37
    x[6]      packing[2]  36
    x[6]      packing[3]  106
    x[6]      packing[4]  195
    x[6]      packing[5]  165
    x[6]      packing[6]  76
    x[6]      packing[7]  189
    x[6]      packing[8]  20
    x[6]      packing[11]  13
    x[6]      packing[13]  197
    x[6]      packing[14]  1
    x[6]      packing[15]  161
    x[6]      packing[17]  5
    x[6]      packing[21]  31
    x[6]      packing[22]  190
    x[6]      packing[23]  16
    x[6]      packing[25]  79
    x[6]      packing[26]  150
    x[6]      packing[27]  75
    x[6]      packing[28]  39
    x[6]      packing[29]  73
    x[6]      packing[30]  133
    x[6]      packing[31]  185
    x[6]      packing[32]  166
    x[6]      packing[34]  101
    x[6]      packing[35]  174
    x[6]      packing[36]  147
    x[6]      packing[38]  73
    x[6]      packing[39]  93
    x[6]      packing[40]  122
    x[6]      packing[43]  49
    x[6]      packing[44]  174
    x[6]      packing[45]  175
    x[6]      packing[46]  123
    x[6]      packing[47]  39
    x[7]      OBJ       81
    x[7]      packing[0]  190
    x[7]      packing[1]  143
    x[7]      packing[2]  140
    x[7]      packing[3]  81
    x[7]      packing[5]  46
    x[7]      packing[7]  138
    x[7]      packing[8]  40
    x[7]      packing[9]  86
    x[7]      packing[11]  143
    x[7]      packing[13]  115
    x[7]      packing[15]  46
    x[7]      packing[16]  19
    x[7]      packing[19]  190
    x[7]      packing[20]  149
    x[7]      packing[21]  34
    x[7]      packing[22]  27
    x[7]      packing[24]  96
    x[7]      packing[26]  174
    x[7]      packing[27]  106
    x[7]      packing[29]  119
    x[7]      packing[30]  192
    x[7]      packing[31]  101
    x[7]      packing[34]  70
    x[7]      packing[35]  121
    x[7]      packing[36]  62
    x[7]      packing[37]  71
    x[7]      packing[38]  159
    x[7]      packing[40]  23
    x[7]      packing[41]  72
    x[7]      packing[42]  173
    x[7]      packing[43]  192
    x[7]      packing[45]  29
    x[7]      packing[46]  163
    x[7]      packing[47]  9
    x[7]      packing[48]  40
    x[8]      OBJ       66
    x[8]      packing[0]  65
    x[8]      packing[1]  55
    x[8]      packing[2]  2
    x[8]      packing[3]  127
    x[8]      packing[4]  145
    x[8]      packing[5]  178
    x[8]      packing[6]  139
    x[8]      packing[8]  157
    x[8]      packing[9]  99
    x[8]      packing[10]  120
    x[8]      packing[11]  198
    x[8]      packing[13]  153
    x[8]      packing[15]  150
    x[8]      packing[16]  26
    x[8]      packing[17]  177
    x[8]      packing[19]  154
    x[8]      packing[24]  47
    x[8]      packing[25]  31
    x[8]      packing[26]  31
    x[8]      packing[28]  15
    x[8]      packing[29]  42
    x[8]      packing[30]  144
    x[8]      packing[31]  92
    x[8]      packing[32]  51
    x[8]      packing[33]  137
    x[8]      packing[34]  104
    x[8]      packing[35]  84
    x[8]      packing[36]  59
    x[8]      packing[37]  37
    x[8]      packing[38]  197
    x[8]      packing[39]  77
    x[8]      packing[40]  195
    x[8]      packing[41]  199
    x[8]      packing[42]  108
    x[8]      packing[43]  47
    x[8]      packing[44]  14
    x[8]      packing[45]  93
    x[8]      packing[47]  166
    x[8]      packing[48]  155
    x[8]      packing[49]  198
    x[8]      R50       1
    x[9]      OBJ       26
    x[9]      packing[0]  55
    x[9]      packing[2]  41
    x[9]      packing[3]  14
    x[9]      packing[4]  137
    x[9]      packing[5]  63
    x[9]      packing[6]  57
    x[9]      packing[7]  82
    x[9]      packing[8]  130
    x[9]      packing[9]  158
    x[9]      packing[10]  47
    x[9]      packing[11]  131
    x[9]      packing[12]  143
    x[9]      packing[13]  41
    x[9]      packing[14]  63
    x[9]      packing[15]  125
    x[9]      packing[16]  108
    x[9]      packing[18]  185
    x[9]      packing[23]  179
    x[9]      packing[24]  166
    x[9]      packing[25]  195
    x[9]      packing[26]  103
    x[9]      packing[29]  87
    x[9]      packing[30]  72
    x[9]      packing[33]  175
    x[9]      packing[34]  98
    x[9]      packing[35]  87
    x[9]      packing[38]  102
    x[9]      packing[40]  2
    x[9]      packing[41]  109
    x[9]      packing[43]  76
    x[9]      packing[44]  17
    x[9]      packing[45]  169
    x[9]      packing[46]  11
    x[9]      packing[47]  50
    x[9]      packing[48]  53
    x[9]      packing[49]  87
    x[10]     OBJ       62
    x[10]     packing[0]  119
    x[10]     packing[1]  179
    x[10]     packing[3]  61
    x[10]     packing[4]  166
    x[10]     packing[5]  161
    x[10]     packing[6]  74
    x[10]     packing[7]  63
    x[10]     packing[8]  171
    x[10]     packing[9]  126
    x[10]     packing[10]  2
    x[10]     packing[13]  90
    x[10]     packing[14]  62
    x[10]     packing[16]  184
    x[10]     packing[17]  95
    x[10]     packing[19]  170
    x[10]     packing[22]  37
    x[10]     packing[24]  58
    x[10]     packing[26]  95
    x[10]     packing[27]  10
    x[10]     packing[28]  1
    x[10]     packing[29]  196
    x[10]     packing[30]  168
    x[10]     packing[31]  142
    x[10]     packing[32]  47
    x[10]     packing[33]  175
    x[10]     packing[34]  161
    x[10]     packing[35]  103
    x[10]     packing[36]  37
    x[10]     packing[38]  58
    x[10]     packing[39]  37
    x[10]     packing[40]  101
    x[10]     packing[41]  152
    x[10]     packing[42]  166
    x[10]     packing[43]  113
    x[10]     packing[44]  151
    x[10]     packing[45]  190
    x[10]     packing[46]  65
    x[10]     packing[47]  118
    x[10]     packing[49]  178
    x[11]     OBJ       69
    x[11]     packing[0]  113
    x[11]     packing[1]  67
    x[11]     packing[2]  155
    x[11]     packing[4]  116
    x[11]     packing[5]  141
    x[11]     packing[6]  116
    x[11]     packing[7]  169
    x[11]     packing[9]  136
    x[11]     packing[11]  30
    x[11]     packing[13]  159
    x[11]     packing[14]  122
    x[11]     packing[15]  12
    x[11]     packing[17]  51
    x[11]     packing[18]  128
    x[11]     packing[20]  47
    x[11]     packing[22]  179
    x[11]     packing[23]  9
    x[11]     packing[25]  177
    x[11]     packing[27]  191
    x[11]     packing[28]  179
    x[11]     packing[31]  99
    x[11]     packing[34]  14
    x[11]     packing[35]  127
    x[11]     packing[37]  170
    x[11]     packing[38]  108
    x[11]     packing[39]  100
    x[11]     packing[41]  65
    x[11]     packing[42]  100
    x[11]     packing[43]  180
    x[11]     packing[46]  97
    x[11]     packing[48]  195
    x[11]     packing[49]  75
    x[12]     OBJ       73
    x[12]     packing[0]  155
    x[12]     packing[1]  192
    x[12]     packing[2]  35
    x[12]     packing[4]  25
    x[12]     packing[6]  74
    x[12]     packing[8]  20
    x[12]     packing[10]  98
    x[12]     packing[11]  95
    x[12]     packing[12]  84
    x[12]     packing[13]  30
    x[12]     packing[15]  118
    x[12]     packing[16]  24
    x[12]     packing[17]  156
    x[12]     packing[19]  147
    x[12]     packing[22]  100
    x[12]     packing[23]  135
    x[12]     packing[24]  32
    x[12]     packing[25]  78
    x[12]     packing[26]  144
    x[12]     packing[27]  111
    x[12]     packing[29]  166
    x[12]     packing[30]  167
    x[12]     packing[31]  115
    x[12]     packing[32]  117
    x[12]     packing[33]  77
    x[12]     packing[34]  151
    x[12]     packing[36]  80
    x[12]     packing[37]  21
    x[12]     packing[38]  150
    x[12]     packing[39]  97
    x[12]     packing[41]  140
    x[12]     packing[42]  96
    x[12]     packing[43]  38
    x[12]     packing[44]  169
    x[12]     packing[45]  134
    x[12]     packing[46]  65
    x[12]     packing[48]  191
    x[12]     packing[49]  61
    x[13]     OBJ       134
    x[13]     packing[1]  189
    x[13]     packing[5]  119
    x[13]     packing[7]  90
    x[13]     packing[8]  22
    x[13]     packing[9]  47
    x[13]     packing[10]  43
    x[13]     packing[12]  150
    x[13]     packing[14]  21
    x[13]     packing[15]  45
    x[13]     packing[16]  113
    x[13]     packing[18]  115
    x[13]     packing[20]  149
    x[13]     packing[21]  1
    x[13]     packing[22]  150
    x[13]     packing[23]  75
    x[13]     packing[25]  142
    x[13]     packing[26]  189
    x[13]     packing[27]  186
    x[13]     packing[28]  80
    x[13]     packing[31]  60
    x[13]     packing[33]  56
    x[13]     packing[35]  85
    x[13]     packing[36]  123
    x[13]     packing[37]  123
    x[13]     packing[38]  27
    x[13]     packing[39]  154
    x[13]     packing[40]  183
    x[13]     packing[41]  142
    x[13]     packing[42]  115
    x[13]     packing[43]  100
    x[13]     packing[44]  90
    x[13]     packing[45]  136
    x[13]     packing[46]  189
    x[13]     packing[47]  151
    x[13]     packing[49]  2
    x[14]     OBJ       40
    x[14]     packing[0]  42
    x[14]     packing[3]  67
    x[14]     packing[4]  97
    x[14]     packing[5]  178
    x[14]     packing[6]  89
    x[14]     packing[7]  27
    x[14]     packing[8]  50
    x[14]     packing[9]  185
    x[14]     packing[11]  183
    x[14]     packing[12]  67
    x[14]     packing[13]  114
    x[14]     packing[14]  168
    x[14]     packing[15]  111
    x[14]     packing[16]  10
    x[14]     packing[17]  80
    x[14]     packing[18]  64
    x[14]     packing[20]  67
    x[14]     packing[24]  14
    x[14]     packing[25]  67
    x[14]     packing[26]  191
    x[14]     packing[28]  152
    x[14]     packing[30]  26
    x[14]     packing[32]  146
    x[14]     packing[34]  176
    x[14]     packing[35]  150
    x[14]     packing[36]  69
    x[14]     packing[37]  149
    x[14]     packing[41]  95
    x[14]     packing[43]  23
    x[14]     packing[45]  65
    x[14]     packing[47]  106
    x[14]     packing[48]  55
    x[15]     OBJ       182
    x[15]     packing[0]  29
    x[15]     packing[1]  70
    x[15]     packing[3]  196
    x[15]     packing[4]  129
    x[15]     packing[5]  22
    x[15]     packing[6]  8
    x[15]     packing[7]  91
    x[15]     packing[8]  101
    x[15]     packing[9]  189
    x[15]     packing[10]  42
    x[15]     packing[11]  15
    x[15]     packing[13]  93
    x[15]     packing[14]  193
    x[15]     packing[15]  26
    x[15]     packing[16]  165
    x[15]     packing[17]  134
    x[15]     packing[18]  48
    x[15]     packing[19]  23
    x[15]     packing[20]  143
    x[15]     packing[21]  5
    x[15]     packing[23]  193
    x[15]     packing[24]  4
    x[15]     packing[26]  147
    x[15]     packing[28]  48
    x[15]     packing[29]  185
    x[15]     packing[31]  140
    x[15]     packing[33]  167
    x[15]     packing[34]  98
    x[15]     packing[36]  176
    x[15]     packing[38]  98
    x[15]     packing[40]  82
    x[15]     packing[42]  20
    x[15]     packing[43]  153
    x[15]     packing[46]  23
    x[15]     packing[47]  169
    x[15]     packing[48]  77
    x[15]     packing[49]  134
    x[15]     R50       1
    x[16]     OBJ       92
    x[16]     packing[0]  198
    x[16]     packing[1]  98
    x[16]     packing[2]  137
    x[16]     packing[3]  167
    x[16]     packing[6]  12
    x[16]     packing[7]  163
    x[16]     packing[8]  174
    x[16]     packing[9]  86
    x[16]     packing[10]  129
    x[16]     packing[11]  182
    x[16]     packing[12]  83
    x[16]     packing[13]  142
    x[16]     packing[15]  12
    x[16]     packing[16]  114
    x[16]     packing[17]  36
    x[16]     packing[20]  120
    x[16]     packing[21]  98
    x[16]     packing[22]  65
    x[16]     packing[23]  122
    x[16]     packing[24]  12
    x[16]     packing[27]  16
    x[16]     packing[28]  112
    x[16]     packing[29]  41
    x[16]     packing[30]  140
    x[16]     packing[31]  136
    x[16]     packing[33]  10
    x[16]     packing[34]  77
    x[16]     packing[35]  128
    x[16]     packing[37]  141
    x[16]     packing[39]  152
    x[16]     packing[42]  190
    x[16]     packing[43]  100
    x[16]     packing[44]  116
    x[16]     packing[46]  28
    x[16]     packing[47]  174
    x[16]     packing[48]  39
    x[16]     packing[49]  32
    x[16]     R50       1
    x[17]     OBJ       126
    x[17]     packing[0]  83
    x[17]     packing[3]  156
    x[17]     packing[4]  135
    x[17]     packing[6]  50
    x[17]     packing[8]  128
    x[17]     packing[9]  133
    x[17]     packing[11]  185
    x[17]     packing[12]  133
    x[17]     packing[13]  17
    x[17]     packing[14]  38
    x[17]     packing[15]  38
    x[17]     packing[16]  82
    x[17]     packing[19]  52
    x[17]     packing[20]  75
    x[17]     packing[21]  2
    x[17]     packing[22]  53
    x[17]     packing[23]  11
    x[17]     packing[24]  4
    x[17]     packing[25]  50
    x[17]     packing[26]  23
    x[17]     packing[27]  189
    x[17]     packing[30]  158
    x[17]     packing[33]  132
    x[17]     packing[35]  79
    x[17]     packing[37]  88
    x[17]     packing[38]  11
    x[17]     packing[39]  135
    x[17]     packing[40]  76
    x[17]     packing[41]  35
    x[17]     packing[45]  92
    x[17]     packing[47]  148
    x[17]     packing[48]  146
    x[17]     packing[49]  24
    x[17]     R50       1
    x[18]     OBJ       30
    x[18]     packing[2]  69
    x[18]     packing[3]  81
    x[18]     packing[4]  170
    x[18]     packing[5]  106
    x[18]     packing[7]  198
    x[18]     packing[8]  41
    x[18]     packing[9]  187
    x[18]     packing[10]  169
    x[18]     packing[12]  37
    x[18]     packing[14]  138
    x[18]     packing[15]  186
    x[18]     packing[16]  66
    x[18]     packing[17]  31
    x[18]     packing[18]  112
    x[18]     packing[19]  53
    x[18]     packing[20]  4
    x[18]     packing[21]  123
    x[18]     packing[22]  99
    x[18]     packing[23]  180
    x[18]     packing[24]  31
    x[18]     packing[26]  157
    x[18]     packing[27]  132
    x[18]     packing[28]  65
    x[18]     packing[29]  52
    x[18]     packing[30]  59
    x[18]     packing[31]  199
    x[18]     packing[32]  45
    x[18]     packing[33]  180
    x[18]     packing[34]  126
    x[18]     packing[35]  180
    x[18]     packing[36]  79
    x[18]     packing[38]  162
    x[18]     packing[40]  158
    x[18]     packing[41]  185
    x[18]     packing[42]  96
    x[18]     packing[43]  113
    x[18]     packing[44]  172
    x[18]     packing[45]  108
    x[18]     packing[47]  96
    x[18]     packing[48]  80
    x[18]     packing[49]  73
    x[19]     OBJ       35
    x[19]     packing[1]  30
    x[19]     packing[3]  53
    x[19]     packing[4]  12
    x[19]     packing[5]  8
    x[19]     packing[6]  93
    x[19]     packing[7]  62
    x[19]     packing[8]  182
    x[19]     packing[9]  62
    x[19]     packing[10]  8
    x[19]     packing[11]  77
    x[19]     packing[12]  74
    x[19]     packing[13]  111
    x[19]     packing[15]  197
    x[19]     packing[16]  28
    x[19]     packing[17]  100
    x[19]     packing[18]  91
    x[19]     packing[19]  79
    x[19]     packing[20]  133
    x[19]     packing[21]  39
    x[19]     packing[22]  97
    x[19]     packing[23]  45
    x[19]     packing[26]  35
    x[19]     packing[27]  123
    x[19]     packing[28]  45
    x[19]     packing[30]  136
    x[19]     packing[31]  172
    x[19]     packing[33]  130
    x[19]     packing[34]  199
    x[19]     packing[35]  134
    x[19]     packing[36]  111
    x[19]     packing[37]  194
    x[19]     packing[38]  130
    x[19]     packing[39]  121
    x[19]     packing[43]  131
    x[19]     packing[44]  95
    x[19]     packing[45]  158
    x[19]     packing[46]  114
    x[19]     packing[47]  117
    x[19]     packing[48]  19
    x[19]     packing[49]  181
    x[20]     OBJ       106
    x[20]     packing[0]  56
    x[20]     packing[1]  121
    x[20]     packing[2]  23
    x[20]     packing[3]  3
    x[20]     packing[7]  97
    x[20]     packing[9]  22
    x[20]     packing[10]  147
    x[20]     packing[11]  44
    x[20]     packing[12]  4
    x[20]     packing[13]  75
    x[20]     packing[14]  176
    x[20]     packing[16]  79
    x[20]     packing[17]  178
    x[20]     packing[19]  47
    x[20]     packing[20]  88
    x[20]     packing[21]  24
    x[20]     packing[22]  116
    x[20]     packing[23]  136
    x[20]     packing[24]  61
    x[20]     packing[25]  102
    x[20]     packing[26]  81
    x[20]     packing[27]  146
    x[20]     packing[28]  156
    x[20]     packing[29]  101
    x[20]     packing[31]  144
    x[20]     packing[32]  177
    x[20]     packing[33]  190
    x[20]     packing[34]  55
    x[20]     packing[35]  2
    x[20]     packing[36]  76
    x[20]     packing[37]  75
    x[20]     packing[39]  24
    x[20]     packing[40]  8
    x[20]     packing[42]  134
    x[20]     packing[44]  133
    x[20]     packing[45]  139
    x[20]     packing[46]  1
    x[20]     packing[47]  110
    x[20]     packing[48]  131
    x[20]     packing[49]  126
    MARKER    'MARKER'                 'INTEND'
RHS
    RHS1      packing[0]  632
    RHS1      packing[1]  709
    RHS1      packing[2]  697
    RHS1      packing[3]  639
    RHS1      packing[4]  851
    RHS1      packing[5]  691
    RHS1      packing[6]  569
    RHS1      packing[7]  790
    RHS1      packing[8]  643
    RHS1      packing[9]  901
    RHS1      packing[10]  530
    RHS1      packing[11]  761
    RHS1      packing[12]  570
    RHS1      packing[13]  736
    RHS1      packing[14]  598
    RHS1      packing[15]  738
    RHS1      packing[16]  749
    RHS1      packing[17]  749
    RHS1      packing[18]  581
    RHS1      packing[19]  589
    RHS1      packing[20]  619
    RHS1      packing[21]  419
    RHS1      packing[22]  718
    RHS1      packing[23]  665
    RHS1      packing[24]  535
    RHS1      packing[25]  706
    RHS1      packing[26]  924
    RHS1      packing[27]  762
    RHS1      packing[28]  540
    RHS1      packing[29]  682
    RHS1      packing[30]  782
    RHS1      packing[31]  974
    RHS1      packing[32]  478
    RHS1      packing[33]  997
    RHS1      packing[34]  933
    RHS1      packing[35]  912
    RHS1      packing[36]  701
    RHS1      packing[37]  783
    RHS1      packing[38]  848
    RHS1      packing[39]  575
    RHS1      packing[40]  685
    RHS1      packing[41]  732
    RHS1      packing[42]  694
    RHS1      packing[43]  760
    RHS1      packing[44]  635
    RHS1      packing[45]  962
    RHS1      packing[46]  765
    RHS1      packing[47]  985
    RHS1      packing[48]  716
    RHS1      packing[49]  873
    RHS1      R50       3
BOUNDS
 BV BND1      x[1]    
 BV BND1      x[2]    
 BV BND1      x[3]    
 BV BND1      x[4]    
 BV BND1      x[5]    
 BV BND1      x[6]    
 BV BND1      x[7]    
 BV BND1      x[8]    
 BV BND1      x[9]    
 BV BND1      x[10]   
 BV BND1      x[11]   
 BV BND1      x[12]   
 BV BND1      x[13]   
 BV BND1      x[14]   
 BV BND1      x[15]   
 BV BND1      x[16]   
 BV BND1      x[17]   
 BV BND1      x[18]   
 BV BND1      x[19]   
 BV BND1      x[20]   
ENDATA
